1111100 AB
342 375 411 434 453 477 507 537 561 603 633 665 699 728 756 786 822 846 879 910 940 977 1012 1041 1065 1089 1113 1158 1208 1255 1299 1349 1389 1435 37
1111100 BA
378 411 452 476 495 519 549 579 603 645 675 707 741 770 798 828 864 888 921 952 982 1019 1056 1085 1109 1133 1157 1198 1248 1291 1335 1385 1424 31
0000011 AB
342 383 423 461 513 595 679 725 769 815 859 905 949 995 1039 1085 1129 1175 1248 1293 1333 1373 1413 8 47
0000011 BA
378 419 459 499 553 635 719 765 809 855 899 945 989 1035 1079 1125 1169 1215 1284 1328 1368 1408 8 43
